(set-option :produce-models true)
(set-logic QF_UF)
(declare-fun p45() Bool)
(declare-fun p24() Bool)
(declare-fun p18() Bool)
(declare-fun p34() Bool)
(declare-fun p43() Bool)
(declare-fun p9() Bool)
(declare-fun p38() Bool)
(declare-fun p13() Bool)
(declare-fun p39() Bool)
(declare-fun p7() Bool)
(declare-fun p35() Bool)
(declare-fun p37() Bool)
(declare-fun p33() Bool)
(declare-fun p48() Bool)
(declare-fun p22() Bool)
(declare-fun p23() Bool)
(declare-fun p44() Bool)
(declare-fun p40() Bool)
(declare-fun p4() Bool)
(declare-fun p0() Bool)
(declare-fun p3() Bool)
(declare-fun p16() Bool)
(declare-fun p6() Bool)
(declare-fun p30() Bool)
(declare-fun p29() Bool)
(declare-fun p17() Bool)
(declare-fun p47() Bool)
(declare-fun p10() Bool)
(declare-fun p19() Bool)
(declare-fun p36() Bool)
(declare-fun p11() Bool)
(declare-fun p46() Bool)
(declare-fun p15() Bool)
(declare-fun p20() Bool)
(declare-fun p1() Bool)
(declare-fun p5() Bool)
(declare-fun p41() Bool)
(declare-fun p2() Bool)
(declare-fun p32() Bool)
(declare-fun p8() Bool)
(declare-fun p12() Bool)
(declare-fun p25() Bool)
(declare-fun p21() Bool)
(declare-fun p28() Bool)
(declare-fun p31() Bool)
(declare-fun p42() Bool)
(declare-fun p49() Bool)
(declare-fun p26() Bool)
(declare-fun p27() Bool)
(declare-fun p14() Bool)
(assert
(and (or (not p45) (not p24) (not p45)) (or p18 (not p24) (not p34)) (or p43 (not p9) p38) (or p13 (not p34) p39) (or p7 (not p35) (not p37)) (or (not p33) p48 (not p43)) (or p33 p22 p23) (or p44 p40 p13) (or (not p4) p0 (not p3)) (or p16 (not p6) p39) (or p30 (not p29) p9) (or (not p17) (not p47) (not p10)) (or (not p19) (not p39) (not p36)) (or (not p36) (not p37) p38) (or p29 p33 (not p23)) (or p29 p11 (not p46)) (or (not p9) (not p15) (not p20)) (or (not p1) (not p33) (not p36)) (or (not p5) p19 (not p41)) (or p20 (not p3) p16) (or p2 p32 p15) (or (not p6) p33 (not p35)) (or p6 (not p0) p48) (or (not p8) p43 p10) (or p40 p22 p12) (or p29 p25 p21) (or (not p47) (not p0) p17) (or (not p4) p36 (not p4)) (or (not p6) p24 p4) (or p28 p40 (not p24)) (or (not p30) (not p13) p37) (or p31 p11 (not p11)) (or p22 p42 p43) (or p39 p7 p13) (or (not p49) p3 (not p42)) (or p43 (not p24) (not p38)) (or p48 (not p7) p23) (or (not p11) (not p1) p25) (or (not p21) p28 (not p26)) (or (not p17) p3 p0) (or p3 p19 (not p26)) (or (not p8) p49 p18) (or (not p35) (not p35) (not p32)) (or p19 p13 p20) (or (not p48) (not p24) p27) (or (not p35) (not p0) (not p42)) (or p35 (not p9) p11) (or p1 p48 p20) (or p49 p8 p7) (or p36 (not p29) p32) (or p22 p38 p33) (or p9 p5 p10) (or (not p11) p32 (not p38)) (or p6 (not p41) (not p10)) (or p39 (not p18) (not p42)) (or (not p24) (not p15) (not p11)) (or (not p47) p40 (not p46)) (or p44 (not p49) p10) (or (not p32) (not p34) (not p14)) (or (not p13) p30 (not p46)) (or p44 (not p17) p28) (or (not p45) p11 p2) (or p2 (not p20) p38) (or (not p27) (not p48) (not p4)) (or (not p45) (not p24) (not p33)) (or (not p39) p10 (not p43)) (or (not p11) (not p10) (not p37)) (or p12 (not p42) (not p6)) (or p5 (not p43) p37) (or p15 p1 p41) (or p19 (not p29) (not p22)) (or p44 p37 (not p49)) (or p30 p23 (not p3)) (or (not p33) p36 p4) (or (not p36) p8 p27) (or p4 (not p11) p40) (or p35 p48 p38) (or (not p30) (not p20) (not p15)) (or (not p41) p38 p44) (or p14 p35 (not p32)) (or p41 (not p20) p47) (or p44 (not p45) p46) (or p31 (not p16) (not p38)) (or (not p21) (not p47) (not p21)) (or p19 (not p24) p37) (or (not p10) (not p17) (not p0)) (or (not p26) p32 (not p0)) (or (not p43) p37 p8) (or (not p46) (not p6) (not p37)) (or (not p33) (not p46) (not p27)) (or p32 p25 (not p39)) (or (not p8) (not p36) (not p24)) (or (not p14) p48 p43) (or (not p33) p12 (not p23)) (or (not p46) (not p25) p13) (or p14 (not p18) p6) (or p5 p15 p7) (or (not p41) p19 (not p22)) (or (not p20) p9 p43) (or p10 p26 p17) (or (not p12) p11 (not p4)) (or p35 (not p17) p37) (or p2 p41 (not p4)) (or (not p47) (not p2) (not p41)) (or p49 p32 (not p18)) (or p28 p3 p22) (or p0 p46 (not p17)) (or p7 p0 p14) (or (not p26) (not p15) (not p31)) (or (not p21) (not p48) p17) (or (not p33) (not p19) p9) (or p38 p9 (not p9)) (or p27 p48 (not p39)) (or p28 (not p3) p34) (or (not p21) p41 p22) (or (not p39) p2 (not p7)) (or p36 (not p1) (not p3)) (or p26 (not p40) (not p8)) (or (not p14) (not p18) (not p34)) (or p39 p40 p47) (or p27 (not p47) (not p48)) (or p7 p30 p42) (or p30 p11 p13) (or p18 p15 (not p43)) (or (not p28) (not p46) p24) (or p29 (not p27) (not p49)) (or p24 (not p12) p31) (or p42 (not p23) p12) (or p1 (not p17) (not p26)) (or p27 (not p20) p47) (or (not p36) p28 (not p17)) (or (not p6) p34 p22) (or p35 p17 p20) (or p49 (not p2) p30) (or p22 p4 p40) (or p46 (not p1) p7) (or p24 p44 p41) (or (not p3) (not p8) p41) (or p34 p45 (not p6)) (or p6 (not p18) p10) (or (not p33) p0 (not p19)) (or (not p19) (not p48) p5) (or p6 p14 p31) (or p34 (not p47) p4) (or (not p8) (not p36) p1) (or (not p39) p30 (not p12)) (or (not p3) p48 p27) (or (not p38) (not p29) (not p43)) (or p46 p17 p13) (or p21 p27 p17) (or p49 (not p0) p42) (or (not p32) p10 (not p25)) (or p43 p16 (not p38)) (or p39 p5 p5) (or (not p27) (not p25) p33) (or p1 p4 p35) (or p6 p8 (not p42)) (or (not p19) p24 p30) (or (not p2) (not p7) (not p39)) (or p33 (not p17) p2) (or p20 p36 p34) (or (not p14) p36 (not p18)) (or (not p47) p18 (not p33)) (or (not p12) p46 (not p13)) (or (not p32) p17 p22) (or (not p45) p11 p38) (or (not p9) p2 p44) (or p17 (not p46) (not p34)) (or p28 p37 (not p40)) (or p41 p16 p44) (or (not p40) p20 (not p33)) (or (not p13) p23 (not p28)) (or p44 p18 (not p27)) (or (not p32) (not p7) (not p46)) (or p47 (not p17) p24) (or p40 (not p27) (not p19)) (or p46 p20 (not p26)) (or (not p8) (not p34) p20) (or p29 (not p24) (not p0)) (or (not p12) p45 (not p37)) (or p0 p30 (not p12)) (or (not p18) p5 (not p21)) (or (not p38) p34 (not p37)) (or p11 (not p35) (not p8)) (or p31 (not p41) (not p5)) (or p11 p27 p43) (or (not p38) (not p24) p14) (or p4 (not p43) p13) (or p7 (not p6) (not p48)) (or (not p41) p17 (not p31)) (or p38 p4 (not p43)) (or p46 (not p35) (not p41)) (or (not p6) (not p23) p46) (or p41 (not p29) (not p17)) (or (not p34) p1 p48) (or (not p10) (not p12) p48) (or p46 (not p47) (not p17)) (or (not p3) (not p8) p47) (or (not p2) (not p3) (not p18)) (or p8 (not p45) p5) (or p41 (not p26) (not p24)) (or p13 p31 (not p35)) (or p42 (not p19) p4) (or p14 (not p1) p9) (or (not p26) p17 (not p40)) (or p42 p9 (not p29)) (or p16 p18 (not p18)) (or (not p49) p3 p34) (or p2 p27 (not p10)) (or (not p45) p17 p0))
)
(check-sat)
(get-model)
